NAME : portcgen-25-80
COMMENT : portcgen N=25, seed=80
TYPE : TSP
DIMENSION : 25
EDGE_WEIGHT_TYPE : EUC_2D
NODE_COORD_SECTION
1 67 84
2 70 86
3 88 97
4 84 82
5 76 71
6 52 58
7 49 62
8 62 78
9 61 45
10 64 95
11 55 70
12 67 78
13 61 86
14 82 106
15 70 68
16 94 63
17 73 77
18 56 59
19 54 60
20 62 73
21 47 60
22 58 84
23 71 47
24 65 77
25 85 98
